
Gurobi 11.0.0 (linux64) logging started Sat Sep 21 21:36:21 2024

Set parameter LogFile to value "/lustre1/scratch/348/vsc34888/JointResearch/05.Models/06.Benchmarking/K.Investments_per_hour/IEEE118_mod1_ByStages_nc140/openStarNet_IEEE118_mod1_ByStages_nc140.log"
Set parameter Method to value 2
Set parameter MIPFocus to value 1
Set parameter Presolve to value 2
Set parameter RINS to value 100
Set parameter MIPGap to value 0.01
Set parameter Threads to value 36
Set parameter TimeLimit to value 259200
Set parameter IterationLimit to value 760000000
Gurobi Optimizer version 11.0.0 build v11.0.0rc2 (linux64 - "Rocky Linux 8.9 (Green Obsidian)")

CPU model: Intel(R) Xeon(R) Gold 6240 CPU @ 2.60GHz, instruction set [SSE2|AVX|AVX2|AVX512]
Thread count: 36 physical cores, 36 logical processors, using up to 36 threads

Optimize a model with 198943 rows, 146783 columns and 492956 nonzeros
Model fingerprint: 0x3162f0c6
Coefficient statistics:
  Matrix range     [5e-04, 9e+03]
  Objective range  [1e+00, 1e+00]
  Bounds range     [1e-04, 3e+00]
  RHS range        [2e-04, 3e+00]
Presolve removed 150766 rows and 69037 columns
Presolve time: 0.32s
Presolved: 48177 rows, 80097 columns, 194467 nonzeros

Ordering time: 0.01s

Barrier statistics:
 AA' NZ     : 1.768e+05
 Factor NZ  : 6.422e+05 (roughly 60 MB of memory)
 Factor Ops : 9.641e+06 (less than 1 second per iteration)
 Threads    : 36

                  Objective                Residual
Iter       Primal          Dual         Primal    Dual     Compl     Time
   0   1.64790100e+07 -2.91709851e+08  9.49e+01 5.90e+01  8.09e+03     0s
   1   1.64082502e+06 -9.73784917e+07  8.11e+00 6.94e-13  9.86e+02     0s
   2   4.45591630e+05 -1.83485248e+07  1.25e+00 6.25e-13  1.50e+02     0s
   3   2.00610615e+05 -2.78330350e+06  3.40e-02 6.25e-13  1.75e+01     0s
   4   1.01238916e+05 -5.25328388e+05  3.88e-03 3.98e-13  3.58e+00     0s
   5   6.09207770e+04 -1.96479654e+05  1.86e-03 3.41e-13  1.47e+00     1s
   6   4.37066312e+04 -9.49294155e+04  1.15e-03 2.27e-13  7.91e-01     1s
   7   3.16569818e+04 -4.03055111e+04  6.71e-04 1.71e-13  4.10e-01     1s
   8   2.46806658e+04 -1.51487957e+04  4.10e-04 2.27e-13  2.27e-01     1s
   9   2.01418065e+04 -2.59488278e+03  2.50e-04 1.14e-13  1.30e-01     1s
  10   1.70927786e+04  3.40840549e+03  1.51e-04 1.14e-13  7.80e-02     1s
  11   1.53010106e+04  7.43052755e+03  9.57e-05 1.14e-13  4.48e-02     1s
  12   1.34836723e+04  9.62616096e+03  4.32e-05 2.27e-13  2.20e-02     1s
  13   1.28247451e+04  1.07698982e+04  2.61e-05 1.14e-13  1.17e-02     1s
  14   1.23372507e+04  1.10438277e+04  1.40e-05 1.14e-13  7.37e-03     1s
  15   1.20924718e+04  1.12844705e+04  8.14e-06 2.27e-13  4.60e-03     1s
  16   1.19344351e+04  1.14902203e+04  4.45e-06 1.14e-13  2.53e-03     1s
  17   1.18657494e+04  1.15438106e+04  2.89e-06 1.14e-13  1.83e-03     1s
  18   1.17931004e+04  1.16558031e+04  1.30e-06 1.14e-13  7.82e-04     1s
  19   1.17639862e+04  1.16889211e+04  6.87e-07 2.27e-13  4.28e-04     1s
  20   1.17433112e+04  1.17149829e+04  2.71e-07 1.14e-13  1.61e-04     1s
  21   1.17349624e+04  1.17219925e+04  1.11e-07 2.27e-13  7.39e-05     1s
  22   1.17302373e+04  1.17269264e+04  2.58e-08 2.27e-13  1.89e-05     1s
  23   1.17288894e+04  1.17284277e+04  2.49e-09 3.41e-13  2.63e-06     1s
  24   1.17287171e+04  1.17286740e+04  2.84e-10 2.27e-13  2.46e-07     1s
  25   1.17287074e+04  1.17286980e+04  9.45e-11 1.14e-13  5.34e-08     1s
  26   1.17287024e+04  1.17287011e+04  1.55e-10 1.71e-13  7.40e-09     1s
  27   1.17287019e+04  1.17287019e+04  1.95e-10 2.27e-13  2.37e-10     1s

Barrier solved model in 27 iterations and 0.91 seconds (0.92 work units)
Optimal objective 1.17287019e+04

Crossover log...

   14124 DPushes remaining with DInf 0.0000000e+00                 1s
       0 DPushes remaining with DInf 0.0000000e+00                 1s

    1096 PPushes remaining with PInf 0.0000000e+00                 1s
       0 PPushes remaining with PInf 0.0000000e+00                 1s

  Push phase complete: Pinf 0.0000000e+00, Dinf 2.3889751e-11      1s

Extra simplex iterations after uncrush: 1
Iteration    Objective       Primal Inf.    Dual Inf.      Time
    4640    1.1728702e+04   0.000000e+00   0.000000e+00      1s

Solved in 4640 iterations and 1.36 seconds (1.18 work units)
Optimal objective  1.172870190e+04

Gurobi 11.0.0 (linux64) logging started Sat Sep 21 21:36:55 2024

Set parameter LogFile to value "/lustre1/scratch/348/vsc34888/JointResearch/05.Models/06.Benchmarking/K.Investments_per_hour/IEEE118_mod1_ByStages_nc140/openStarNet_IEEE118_mod1_ByStages_nc140.log"
Set parameter Method to value 2
Set parameter MIPFocus to value 1
Set parameter Presolve to value 2
Set parameter RINS to value 100
Set parameter MIPGap to value 0.01
Set parameter Threads to value 36
Set parameter TimeLimit to value 259200
Set parameter IterationLimit to value 760000000
Gurobi Optimizer version 11.0.0 build v11.0.0rc2 (linux64 - "Rocky Linux 8.9 (Green Obsidian)")

CPU model: Intel(R) Xeon(R) Gold 6240 CPU @ 2.60GHz, instruction set [SSE2|AVX|AVX2|AVX512]
Thread count: 36 physical cores, 36 logical processors, using up to 36 threads

Optimize a model with 198943 rows, 146783 columns and 492956 nonzeros
Model fingerprint: 0xf89226c6
Coefficient statistics:
  Matrix range     [5e-04, 9e+03]
  Objective range  [1e+00, 1e+00]
  Bounds range     [1e-04, 3e+00]
  RHS range        [2e-04, 3e+00]
Presolve removed 150369 rows and 68500 columns
Presolve time: 0.29s
Presolved: 48574 rows, 80494 columns, 191624 nonzeros

Ordering time: 0.01s

Barrier statistics:
 AA' NZ     : 1.642e+05
 Factor NZ  : 6.197e+05 (roughly 60 MB of memory)
 Factor Ops : 8.680e+06 (less than 1 second per iteration)
 Threads    : 36

                  Objective                Residual
Iter       Primal          Dual         Primal    Dual     Compl     Time
   0   1.54023481e+07 -4.26841673e+08  8.27e+01 6.86e+01  1.14e+04     0s
   1   1.66878878e+06 -1.49914613e+08  7.64e+00 1.07e-12  1.50e+03     0s
   2   4.73986749e+05 -2.97483194e+07  1.26e+00 1.05e-12  2.40e+02     0s
   3   2.21326122e+05 -3.77318797e+06  3.76e-02 9.38e-13  2.35e+01     0s
   4   1.27773213e+05 -8.66496221e+05  5.63e-03 9.09e-13  5.67e+00     0s
   5   7.85575832e+04 -3.13271891e+05  2.71e-03 9.09e-13  2.23e+00     0s
   6   4.96395378e+04 -1.42494012e+05  1.32e-03 3.41e-13  1.09e+00     1s
   7   3.55535747e+04 -6.79027712e+04  7.86e-04 2.27e-13  5.87e-01     1s
   8   2.79933958e+04 -2.65822170e+04  5.09e-04 2.27e-13  3.10e-01     1s
   9   2.08471481e+04 -4.49293237e+03  2.60e-04 4.55e-13  1.44e-01     1s
  10   1.81415277e+04  3.54556186e+03  1.76e-04 2.27e-13  8.28e-02     1s
  11   1.58015501e+04  7.70724367e+03  1.08e-04 2.27e-13  4.59e-02     1s
  12   1.41952861e+04  9.87864849e+03  6.32e-05 2.27e-13  2.45e-02     1s
  13   1.32056149e+04  1.09344740e+04  3.71e-05 2.27e-13  1.29e-02     1s
  14   1.27067629e+04  1.12378385e+04  2.42e-05 2.27e-13  8.33e-03     1s
  15   1.24328825e+04  1.14333968e+04  1.73e-05 1.14e-13  5.67e-03     1s
  16   1.21760571e+04  1.15078692e+04  1.08e-05 2.27e-13  3.79e-03     1s
  17   1.20606548e+04  1.16034927e+04  7.95e-06 2.27e-13  2.59e-03     1s
  18   1.18807535e+04  1.16634187e+04  3.55e-06 2.27e-13  1.23e-03     1s
  19   1.18090990e+04  1.16864704e+04  1.84e-06 2.27e-13  6.96e-04     1s
  20   1.17638714e+04  1.17054069e+04  7.71e-07 2.27e-13  3.32e-04     1s
  21   1.17379423e+04  1.17226330e+04  1.96e-07 2.27e-13  8.68e-05     1s
  22   1.17307727e+04  1.17263813e+04  4.08e-08 2.27e-13  2.49e-05     1s
  23   1.17293944e+04  1.17278413e+04  1.28e-08 2.27e-13  8.81e-06     1s
  24   1.17288407e+04  1.17284499e+04  2.44e-09 2.27e-13  2.22e-06     1s
  25   1.17287202e+04  1.17286455e+04  3.52e-10 2.27e-13  4.23e-07     1s
  26   1.17287079e+04  1.17286921e+04  7.30e-10 2.27e-13  8.97e-08     1s
  27   1.17287022e+04  1.17287012e+04  1.94e-09 2.27e-13  5.79e-09     1s
  28   1.17287019e+04  1.17287019e+04  3.48e-10 4.55e-13  2.16e-10     1s

Barrier solved model in 28 iterations and 0.95 seconds (0.93 work units)
Optimal objective 1.17287019e+04

Crossover log...

   14194 DPushes remaining with DInf 0.0000000e+00                 1s
       0 DPushes remaining with DInf 0.0000000e+00                 1s

    1086 PPushes remaining with PInf 0.0000000e+00                 1s
       0 PPushes remaining with PInf 0.0000000e+00                 1s

  Push phase complete: Pinf 0.0000000e+00, Dinf 4.3759609e-11      1s

Extra simplex iterations after uncrush: 1
Iteration    Objective       Primal Inf.    Dual Inf.      Time
    4700    1.1728702e+04   0.000000e+00   0.000000e+00      1s

Solved in 4700 iterations and 1.43 seconds (1.20 work units)
Optimal objective  1.172870190e+04

Gurobi 11.0.0 (linux64) logging started Sat Sep 21 21:36:59 2024

Set parameter LogFile to value "/lustre1/scratch/348/vsc34888/JointResearch/05.Models/06.Benchmarking/K.Investments_per_hour/IEEE118_mod1_ByStages_nc140/openStarNet_IEEE118_mod1_ByStages_nc140.log"
Set parameter Method to value 2
Set parameter MIPFocus to value 1
Set parameter Presolve to value 2
Set parameter RINS to value 100
Set parameter MIPGap to value 0.01
Set parameter Threads to value 36
Set parameter TimeLimit to value 259200
Set parameter IterationLimit to value 760000000
Gurobi Optimizer version 11.0.0 build v11.0.0rc2 (linux64 - "Rocky Linux 8.9 (Green Obsidian)")

CPU model: Intel(R) Xeon(R) Gold 6240 CPU @ 2.60GHz, instruction set [SSE2|AVX|AVX2|AVX512]
Thread count: 36 physical cores, 36 logical processors, using up to 36 threads

Optimize a model with 198943 rows, 146783 columns and 492956 nonzeros
Model fingerprint: 0x3162f0c6
Coefficient statistics:
  Matrix range     [5e-04, 9e+03]
  Objective range  [1e+00, 1e+00]
  Bounds range     [1e-04, 3e+00]
  RHS range        [2e-04, 3e+00]
Presolve removed 150766 rows and 69037 columns
Presolve time: 0.32s
Presolved: 48177 rows, 80097 columns, 194467 nonzeros

Ordering time: 0.01s

Barrier statistics:
 AA' NZ     : 1.768e+05
 Factor NZ  : 6.422e+05 (roughly 60 MB of memory)
 Factor Ops : 9.641e+06 (less than 1 second per iteration)
 Threads    : 36

                  Objective                Residual
Iter       Primal          Dual         Primal    Dual     Compl     Time
   0   1.64790100e+07 -2.91709851e+08  9.49e+01 5.90e+01  8.09e+03     0s
   1   1.64082502e+06 -9.73784917e+07  8.11e+00 6.94e-13  9.86e+02     0s
   2   4.45591630e+05 -1.83485248e+07  1.25e+00 6.25e-13  1.50e+02     0s
   3   2.00610615e+05 -2.78330350e+06  3.40e-02 6.25e-13  1.75e+01     0s
   4   1.01238916e+05 -5.25328388e+05  3.88e-03 3.98e-13  3.58e+00     1s
   5   6.09207770e+04 -1.96479654e+05  1.86e-03 3.41e-13  1.47e+00     1s
   6   4.37066312e+04 -9.49294155e+04  1.15e-03 2.27e-13  7.91e-01     1s
   7   3.16569818e+04 -4.03055111e+04  6.71e-04 1.71e-13  4.10e-01     1s
   8   2.46806658e+04 -1.51487957e+04  4.10e-04 2.27e-13  2.27e-01     1s
   9   2.01418065e+04 -2.59488278e+03  2.50e-04 1.14e-13  1.30e-01     1s
  10   1.70927786e+04  3.40840549e+03  1.51e-04 1.14e-13  7.80e-02     1s
  11   1.53010106e+04  7.43052755e+03  9.57e-05 1.14e-13  4.48e-02     1s
  12   1.34836723e+04  9.62616096e+03  4.32e-05 2.27e-13  2.20e-02     1s
  13   1.28247451e+04  1.07698982e+04  2.61e-05 1.14e-13  1.17e-02     1s
  14   1.23372507e+04  1.10438277e+04  1.40e-05 1.14e-13  7.37e-03     1s
  15   1.20924718e+04  1.12844705e+04  8.14e-06 2.27e-13  4.60e-03     1s
  16   1.19344351e+04  1.14902203e+04  4.45e-06 1.14e-13  2.53e-03     1s
  17   1.18657494e+04  1.15438106e+04  2.89e-06 1.14e-13  1.83e-03     1s
  18   1.17931004e+04  1.16558031e+04  1.30e-06 1.14e-13  7.82e-04     1s
  19   1.17639862e+04  1.16889211e+04  6.87e-07 2.27e-13  4.28e-04     1s
  20   1.17433112e+04  1.17149829e+04  2.71e-07 1.14e-13  1.61e-04     1s
  21   1.17349624e+04  1.17219925e+04  1.11e-07 2.27e-13  7.39e-05     1s
  22   1.17302373e+04  1.17269264e+04  2.58e-08 2.27e-13  1.89e-05     1s
  23   1.17288894e+04  1.17284277e+04  2.49e-09 3.41e-13  2.63e-06     1s
  24   1.17287171e+04  1.17286740e+04  2.84e-10 2.27e-13  2.46e-07     1s
  25   1.17287074e+04  1.17286980e+04  9.45e-11 1.14e-13  5.34e-08     1s
  26   1.17287024e+04  1.17287011e+04  1.55e-10 1.71e-13  7.40e-09     1s
  27   1.17287019e+04  1.17287019e+04  1.95e-10 2.27e-13  2.37e-10     1s

Barrier solved model in 27 iterations and 0.97 seconds (0.92 work units)
Optimal objective 1.17287019e+04

Crossover log...

   14124 DPushes remaining with DInf 0.0000000e+00                 1s
       0 DPushes remaining with DInf 0.0000000e+00                 1s

    1096 PPushes remaining with PInf 0.0000000e+00                 1s
       0 PPushes remaining with PInf 0.0000000e+00                 1s

  Push phase complete: Pinf 0.0000000e+00, Dinf 2.3889751e-11      1s

Extra simplex iterations after uncrush: 1
Iteration    Objective       Primal Inf.    Dual Inf.      Time
    4640    1.1728702e+04   0.000000e+00   0.000000e+00      1s

Solved in 4640 iterations and 1.49 seconds (1.18 work units)
Optimal objective  1.172870190e+04

Gurobi 11.0.0 (linux64) logging started Sat Sep 21 21:37:34 2024

Set parameter LogFile to value "/lustre1/scratch/348/vsc34888/JointResearch/05.Models/06.Benchmarking/K.Investments_per_hour/IEEE118_mod1_ByStages_nc140/openStarNet_IEEE118_mod1_ByStages_nc140.log"
Set parameter Method to value 2
Set parameter MIPFocus to value 1
Set parameter Presolve to value 2
Set parameter RINS to value 100
Set parameter MIPGap to value 0.01
Set parameter Threads to value 36
Set parameter TimeLimit to value 259200
Set parameter IterationLimit to value 760000000
Gurobi Optimizer version 11.0.0 build v11.0.0rc2 (linux64 - "Rocky Linux 8.9 (Green Obsidian)")

CPU model: Intel(R) Xeon(R) Gold 6240 CPU @ 2.60GHz, instruction set [SSE2|AVX|AVX2|AVX512]
Thread count: 36 physical cores, 36 logical processors, using up to 36 threads

Optimize a model with 198943 rows, 146783 columns and 492956 nonzeros
Model fingerprint: 0xf89226c6
Coefficient statistics:
  Matrix range     [5e-04, 9e+03]
  Objective range  [1e+00, 1e+00]
  Bounds range     [1e-04, 3e+00]
  RHS range        [2e-04, 3e+00]
Presolve removed 150369 rows and 68500 columns
Presolve time: 0.29s
Presolved: 48574 rows, 80494 columns, 191624 nonzeros

Ordering time: 0.01s

Barrier statistics:
 AA' NZ     : 1.642e+05
 Factor NZ  : 6.197e+05 (roughly 60 MB of memory)
 Factor Ops : 8.680e+06 (less than 1 second per iteration)
 Threads    : 36

                  Objective                Residual
Iter       Primal          Dual         Primal    Dual     Compl     Time
   0   1.54023481e+07 -4.26841673e+08  8.27e+01 6.86e+01  1.14e+04     0s
   1   1.66878878e+06 -1.49914613e+08  7.64e+00 1.07e-12  1.50e+03     0s
   2   4.73986749e+05 -2.97483194e+07  1.26e+00 1.05e-12  2.40e+02     0s
   3   2.21326122e+05 -3.77318797e+06  3.76e-02 9.38e-13  2.35e+01     0s
   4   1.27773213e+05 -8.66496221e+05  5.63e-03 9.09e-13  5.67e+00     0s
   5   7.85575832e+04 -3.13271891e+05  2.71e-03 9.09e-13  2.23e+00     1s
   6   4.96395378e+04 -1.42494012e+05  1.32e-03 3.41e-13  1.09e+00     1s
   7   3.55535747e+04 -6.79027712e+04  7.86e-04 2.27e-13  5.87e-01     1s
   8   2.79933958e+04 -2.65822170e+04  5.09e-04 2.27e-13  3.10e-01     1s
   9   2.08471481e+04 -4.49293237e+03  2.60e-04 4.55e-13  1.44e-01     1s
  10   1.81415277e+04  3.54556186e+03  1.76e-04 2.27e-13  8.28e-02     1s
  11   1.58015501e+04  7.70724367e+03  1.08e-04 2.27e-13  4.59e-02     1s
  12   1.41952861e+04  9.87864849e+03  6.32e-05 2.27e-13  2.45e-02     1s
  13   1.32056149e+04  1.09344740e+04  3.71e-05 2.27e-13  1.29e-02     1s
  14   1.27067629e+04  1.12378385e+04  2.42e-05 2.27e-13  8.33e-03     1s
  15   1.24328825e+04  1.14333968e+04  1.73e-05 1.14e-13  5.67e-03     1s
  16   1.21760571e+04  1.15078692e+04  1.08e-05 2.27e-13  3.79e-03     1s
  17   1.20606548e+04  1.16034927e+04  7.95e-06 2.27e-13  2.59e-03     1s
  18   1.18807535e+04  1.16634187e+04  3.55e-06 2.27e-13  1.23e-03     1s
  19   1.18090990e+04  1.16864704e+04  1.84e-06 2.27e-13  6.96e-04     1s
  20   1.17638714e+04  1.17054069e+04  7.71e-07 2.27e-13  3.32e-04     1s
  21   1.17379423e+04  1.17226330e+04  1.96e-07 2.27e-13  8.68e-05     1s
  22   1.17307727e+04  1.17263813e+04  4.08e-08 2.27e-13  2.49e-05     1s
  23   1.17293944e+04  1.17278413e+04  1.28e-08 2.27e-13  8.81e-06     1s
  24   1.17288407e+04  1.17284499e+04  2.44e-09 2.27e-13  2.22e-06     1s
  25   1.17287202e+04  1.17286455e+04  3.52e-10 2.27e-13  4.23e-07     1s
  26   1.17287079e+04  1.17286921e+04  7.30e-10 2.27e-13  8.97e-08     1s
  27   1.17287022e+04  1.17287012e+04  1.94e-09 2.27e-13  5.79e-09     1s
  28   1.17287019e+04  1.17287019e+04  3.48e-10 4.55e-13  2.16e-10     1s

Barrier solved model in 28 iterations and 0.97 seconds (0.93 work units)
Optimal objective 1.17287019e+04

Crossover log...

   14194 DPushes remaining with DInf 0.0000000e+00                 1s
       0 DPushes remaining with DInf 0.0000000e+00                 1s

    1086 PPushes remaining with PInf 0.0000000e+00                 1s
       0 PPushes remaining with PInf 0.0000000e+00                 1s

  Push phase complete: Pinf 0.0000000e+00, Dinf 4.3759609e-11      1s

Extra simplex iterations after uncrush: 1
Iteration    Objective       Primal Inf.    Dual Inf.      Time
    4700    1.1728702e+04   0.000000e+00   0.000000e+00      1s

Solved in 4700 iterations and 1.44 seconds (1.20 work units)
Optimal objective  1.172870190e+04
